Results/Experiment 1 Results/Existing Benchmark/RES_80/i-80-75-4.txt
solutions: 4 nodes: 9  modelTime: 116  solveTime: 19  totalTime: 147  modelSize: 7853  readTime: 12 matchingSize: 40
