Results/Experiment 2 Results/Existing Benchmark/i-80-75-4.lp
clingo version 5.4.0
Reading from tempSRTISolver.lp ...
Solving...
Answer: 1
matched(1,2) matched(34,4) matched(66,5) matched(23,7) matched(79,8) matched(14,9) matched(12,10) matched(40,11) matched(10,12) matched(71,13) matched(9,14) matched(3,16) matched(48,17) matched(28,18) matched(65,19) matched(69,20) matched(74,21) matched(31,22) matched(62,24) matched(70,25) matched(68,27) matched(18,28) matched(22,31) matched(49,32) matched(51,33) matched(58,36) matched(44,37) matched(61,38) matched(43,39) matched(11,40) matched(63,42) matched(39,43) matched(47,50) matched(33,51) matched(73,52) matched(57,53) matched(26,54) matched(41,55) matched(80,56) matched(36,58) matched(67,59) matched(45,60) matched(38,61) matched(24,62) matched(46,64) matched(5,66) matched(59,67) matched(20,69) matched(25,70) matched(6,72) matched(52,73) matched(21,74) matched(29,77) matched(75,78) matched(8,79) matched(56,80) matched(2,1) matched(16,3) matched(30,15) matched(7,23) matched(15,30) matched(4,34) matched(76,35) matched(55,41) matched(60,45) matched(64,46) matched(50,47) matched(17,48) matched(32,49) matched(53,57) matched(19,65) matched(13,71) matched(78,75) matched(72,6) matched(54,26) matched(37,44) matched(35,76) matched(42,63) matched(27,68) matched(77,29)
Optimization: 556
Answer: 2
matched(1,2) matched(34,4) matched(66,5) matched(23,7) matched(79,8) matched(14,9) matched(12,10) matched(40,11) matched(10,12) matched(71,13) matched(9,14) matched(3,16) matched(48,17) matched(28,18) matched(65,19) matched(69,20) matched(74,21) matched(31,22) matched(62,24) matched(70,25) matched(68,27) matched(18,28) matched(22,31) matched(49,32) matched(51,33) matched(58,36) matched(44,37) matched(61,38) matched(43,39) matched(11,40) matched(63,42) matched(39,43) matched(47,50) matched(33,51) matched(73,52) matched(57,53) matched(26,54) matched(41,55) matched(72,56) matched(36,58) matched(67,59) matched(45,60) matched(38,61) matched(24,62) matched(46,64) matched(5,66) matched(59,67) matched(20,69) matched(25,70) matched(56,72) matched(52,73) matched(21,74) matched(29,77) matched(75,78) matched(8,79) matched(6,80) matched(2,1) matched(16,3) matched(30,15) matched(7,23) matched(15,30) matched(4,34) matched(76,35) matched(55,41) matched(60,45) matched(64,46) matched(50,47) matched(17,48) matched(32,49) matched(53,57) matched(19,65) matched(13,71) matched(78,75) matched(80,6) matched(54,26) matched(37,44) matched(35,76) matched(42,63) matched(27,68) matched(77,29)
Optimization: 552
OPTIMUM FOUND

Models       : 2
  Optimum    : yes
Optimization : 552
Calls        : 1
Time         : 10.005s (Solving: 0.75s 1st Model: 0.33s Unsat: 0.40s)
CPU Time     : 10.004s
